s = array1d(1..400, [0, 0, 17, 0, 0, 14, 0, 0, 12, 0, 8, 0, 19, 6, 0, 11, 0, 1, 10, 13, 0, 6, 0, 0, 4, 8, 3, 14, 1, 11, 7, 13, 0, 0, 0, 0, 15, 0, 18, 0, 0, 0, 15, 5, 10, 11, 0, 9, 18, 2, 19, 0, 17, 0, 0, 0, 0, 13, 0, 0, 14, 0, 0, 16, 3, 15, 0, 0, 0, 13, 0, 5, 0, 19, 18, 9, 2, 0, 0, 0, 2, 19, 10, 3, 11, 0, 6, 0, 0, 0, 0, 12, 0, 0, 4, 0, 18, 0, 0, 5, 0, 1, 0, 4, 14, 0, 17, 3, 11, 16, 0, 0, 0, 13, 19, 0, 0, 0, 15, 9, 0, 11, 0, 0, 0, 0, 0, 17, 8, 1, 3, 16, 2, 0, 0, 0, 0, 10, 19, 0, 6, 0, 0, 7, 0, 18, 0, 0, 0, 5, 0, 0, 0, 17, 8, 1, 4, 9, 0, 16, 5, 0, 0, 15, 1, 0, 0, 0, 0, 0, 6, 10, 7, 0, 0, 13, 17, 0, 0, 14, 0, 0, 0, 10, 2, 0, 5, 0, 15, 12, 0, 0, 16, 8, 13, 0, 0, 11, 6, 0, 0, 0, 9, 0, 16, 0, 0, 10, 19, 0, 17, 0, 0, 0, 1, 3, 14, 5, 0, 0, 16, 8, 19, 0, 0, 0, 1, 0, 0, 0, 0, 18, 15, 9, 17, 7, 0, 0, 0, 11, 12, 5, 14, 0, 19, 17, 2, 0, 0, 0, 0, 4, 3, 0, 0, 18, 0, 6, 13, 0, 0, 17, 12, 2, 0, 13, 0, 0, 14, 18, 4, 7, 0, 10, 3, 0, 5, 0, 0, 0, 3, 12, 13, 0, 0, 2, 0, 7, 5, 0, 0, 0, 0, 15, 6, 0, 0, 0, 11, 19, 0, 0, 0, 0, 6, 1, 15, 4, 0, 0, 11, 0, 10, 0, 0, 12, 9, 18, 16, 0, 19, 10, 0, 8, 0, 0, 0, 11, 0, 0, 9, 2, 0, 12, 0, 15, 0, 14, 7, 4, 0, 0, 0, 1, 0, 0, 16, 0, 10, 3, 2, 0, 0, 14, 0, 4, 13, 7, 8, 0, 18, 7, 3, 0, 0, 0, 9, 16, 0, 15, 0, 0, 0, 0, 11, 0, 6, 17, 12, 1, 0, 13, 2, 0, 0, 6, 14, 0, 7, 10, 0, 3, 18, 1, 9, 0, 19, 0, 0, 0]);
n = 20;
